c This is an instance of the exact track of PACE 2020 Challenge, see https://pacechallenge.org/2020/ 
c TYPE: infrastracture 
c ORIGIN: Open street maps 
c DESCRIPTION: Wysoka (Poland): a road network downloaded from open street maps using osmnx Python package 
p tdp 93 111
1 56
1 29
1 86
2 13
2 40
2 60
3 13
4 65
4 5
4 19
5 8
5 16
6 37
6 48
7 44
7 15
7 38
8 43
8 45
9 11
9 20
9 52
10 64
10 18
10 11
11 54
12 63
13 73
13 22
14 25
15 25
15 38
16 26
16 23
17 19
17 40
17 48
18 42
19 63
20 61
20 42
21 22
22 30
23 27
23 42
24 55
24 31
24 70
25 27
26 44
26 43
27 44
28 37
28 29
29 41
30 34
30 32
31 34
31 59
32 33
32 68
33 36
33 35
34 67
37 39
38 45
39 70
39 41
40 57
41 67
43 45
46 50
46 77
46 47
48 49
50 52
50 53
51 86
51 62
52 54
53 85
53 54
53 74
55 59
55 57
56 66
56 58
57 60
59 60
61 64
63 65
65 73
67 90
69 90
70 71
72 73
74 75
74 76
77 79
78 79
79 81
80 81
81 83
82 83
83 84
86 87
87 88
87 89
90 91
91 92
91 93
